c generated by sgen
p cnf 93 196
-2 -3 -4 0
-1 -3 -4 0
-1 -2 -4 0
-1 -2 -3 0
-6 -7 -8 0
-5 -7 -8 0
-5 -6 -8 0
-5 -6 -7 0
-10 -11 -12 0
-9 -11 -12 0
-9 -10 -12 0
-9 -10 -11 0
-14 -15 -16 0
-13 -15 -16 0
-13 -14 -16 0
-13 -14 -15 0
-18 -19 -20 0
-17 -19 -20 0
-17 -18 -20 0
-17 -18 -19 0
-22 -23 -24 0
-21 -23 -24 0
-21 -22 -24 0
-21 -22 -23 0
-26 -27 -28 0
-25 -27 -28 0
-25 -26 -28 0
-25 -26 -27 0
-30 -31 -32 0
-29 -31 -32 0
-29 -30 -32 0
-29 -30 -31 0
-34 -35 -36 0
-33 -35 -36 0
-33 -34 -36 0
-33 -34 -35 0
-38 -39 -40 0
-37 -39 -40 0
-37 -38 -40 0
-37 -38 -39 0
-42 -43 -44 0
-41 -43 -44 0
-41 -42 -44 0
-41 -42 -43 0
-46 -47 -48 0
-45 -47 -48 0
-45 -46 -48 0
-45 -46 -47 0
-50 -51 -52 0
-49 -51 -52 0
-49 -50 -52 0
-49 -50 -51 0
-54 -55 -56 0
-53 -55 -56 0
-53 -54 -56 0
-53 -54 -55 0
-58 -59 -60 0
-57 -59 -60 0
-57 -58 -60 0
-57 -58 -59 0
-62 -63 -64 0
-61 -63 -64 0
-61 -62 -64 0
-61 -62 -63 0
-66 -67 -68 0
-65 -67 -68 0
-65 -66 -68 0
-65 -66 -67 0
-70 -71 -72 0
-69 -71 -72 0
-69 -70 -72 0
-69 -70 -71 0
-74 -75 -76 0
-73 -75 -76 0
-73 -74 -76 0
-73 -74 -75 0
-78 -79 -80 0
-77 -79 -80 0
-77 -78 -80 0
-77 -78 -79 0
-82 -83 -84 0
-81 -83 -84 0
-81 -82 -84 0
-81 -82 -83 0
-86 -87 -88 0
-85 -87 -88 0
-85 -86 -88 0
-85 -86 -87 0
-89 -90 -91 0
-89 -90 -92 0
-89 -90 -93 0
-89 -91 -92 0
-89 -91 -93 0
-89 -92 -93 0
-90 -91 -92 0
-90 -91 -93 0
-90 -92 -93 0
-91 -92 -93 0
18 69 65 0
13 69 65 0
13 18 65 0
13 18 69 0
44 17 73 0
82 17 73 0
82 44 73 0
82 44 17 0
60 1 77 0
16 1 77 0
16 60 77 0
16 60 1 0
6 80 87 0
66 80 87 0
66 6 87 0
66 6 80 0
23 70 36 0
89 70 36 0
89 23 36 0
89 23 70 0
33 19 63 0
86 19 63 0
86 33 63 0
86 33 19 0
9 79 52 0
24 79 52 0
24 9 52 0
24 9 79 0
40 25 10 0
72 25 10 0
72 40 10 0
72 40 25 0
5 55 74 0
11 55 74 0
11 5 74 0
11 5 55 0
85 49 27 0
2 49 27 0
2 85 27 0
2 85 49 0
42 15 92 0
88 15 92 0
88 42 92 0
88 42 15 0
53 58 4 0
90 58 4 0
90 53 4 0
90 53 58 0
12 45 41 0
3 45 41 0
3 12 41 0
3 12 45 0
20 28 32 0
78 28 32 0
78 20 32 0
78 20 28 0
26 93 64 0
76 93 64 0
76 26 64 0
76 26 93 0
71 57 30 0
51 57 30 0
51 71 30 0
51 71 57 0
54 43 29 0
35 43 29 0
35 54 29 0
35 54 43 0
59 83 46 0
34 83 46 0
34 59 46 0
34 59 83 0
38 50 68 0
84 50 68 0
84 38 68 0
84 38 50 0
14 81 62 0
7 81 62 0
7 14 62 0
7 14 81 0
39 47 8 0
91 47 8 0
91 39 8 0
91 39 47 0
22 67 61 0
56 67 61 0
56 22 61 0
56 22 67 0
31 48 21 0
31 48 75 0
31 48 37 0
31 21 75 0
31 21 37 0
31 75 37 0
48 21 75 0
48 21 37 0
48 75 37 0
21 75 37 0
